Route #1: 98
Route #2: 3 7 30 84 51 39 8 15 42 67 100 102 135 33 14 11 101 128 116 68 83 136 86 81 71 89 91
Route #3: 121 45 109 88 124 16 32 118 95 126 24 85 114 137 9 26 23 4 62 74 97 31 13 58 35 110
Route #4: 52 87 99 2 49 90 113 6 5 96 53 129 36 125 25 112 22 108 94 69 38 131 34 115 27 123 50 10 70
Route #5: 29 57 44 72 117 12 66 19 61 48 65 60 59 134 40 37 17 47 119 1 18 55 21 103 28 63 104
Route #6: 56 54 79 20 73 120 75 133 78 80 41 92 107 132 93 130 127 64 82 106 77 43 46 105 111 122 138 76
Cost 11182.000000